383, 0, 0, 45, 0
384, 0, 1, 66, 2
385, 0, 2, 83, 3
386, 0, 3, 69, 1
387, 1, 0, 89, 2
388, 1, 1, 72, 0
389, 1, 2, 31, 3
390, 1, 3, 55, 1
391, 2, 0, 85, 3
392, 2, 1, 32, 0
393, 2, 2, 92, 1
394, 2, 3, 44, 2
395, 3, 0, 77, 3
396, 3, 1, 40, 0
397, 3, 2, 81, 2
398, 3, 3, 34, 1
